SECTION Graph
Nodes 987
Edges 1923
E 1 858 2
E 1 864 1
E 1 873 1
E 2 868 2
E 2 880 1
E 2 885 2
E 3 4 2
E 3 910 3
E 4 911 3
E 5 29 1
E 5 869 5
E 5 895 1
E 6 22 2
E 6 880 5
E 6 895 2
E 6 911 6
E 7 34 1
E 7 344 1
E 7 365 1
E 7 366 1
E 8 35 1
E 8 402 1
E 8 421 1
E 8 422 1
E 9 10 1
E 9 483 4
E 10 17 2
E 10 490 4
E 11 12 1
E 11 514 4
E 11 532 1
E 12 519 4
E 13 36 1
E 13 163 1
E 13 307 10
E 13 356 4
E 14 37 1
E 14 465 4
E 14 482 2
E 14 628 19
E 15 34 1
E 15 291 10
E 15 329 1
E 15 345 1
E 16 35 1
E 16 365 2
E 16 377 1
E 16 403 1
E 17 505 4
E 17 532 1
E 18 36 1
E 18 166 1
E 18 321 10
E 18 466 4
E 19 37 1
E 19 171 2
E 20 888 1
E 20 889 1
E 20 898 1
E 20 909 5
E 21 909 6
E 21 912 1
E 22 889 5
E 22 909 1
E 22 912 6
E 23 898 5
E 23 909 1
E 24 242 1
E 24 243 1
E 24 253 4
E 24 284 16
E 25 259 4
E 25 273 1
E 26 69 3
E 26 841 1
E 26 845 1
E 26 849 2
E 27 840 5
E 27 854 1
E 27 864 1
E 27 865 1
E 28 172 1
E 28 855 5
E 29 172 1
E 29 865 5
E 30 690 2
E 30 701 1
E 30 714 1
E 30 715 1
E 31 728 1
E 31 729 1
E 31 738 1
E 31 742 2
E 32 173 1
E 32 711 8
E 32 747 1
E 33 173 1
E 33 754 1
E 34 336 1
E 34 355 1
E 35 392 1
E 35 413 1
E 36 314 10
E 36 425 1
E 37 178 2
E 37 640 19
E 38 39 1
E 38 799 2
E 38 814 1
E 38 846 15
E 39 40 1
E 39 794 2
E 39 811 1
E 40 749 17
E 40 791 2
E 40 804 1
E 41 42 1
E 41 225 5
E 41 226 4
E 42 43 1
E 42 223 5
E 43 222 5
E 44 45 1
E 44 188 8
E 44 351 10
E 44 453 1
E 45 56 2
E 45 189 8
E 45 362 10
E 46 47 1
E 46 191 8
E 46 408 10
E 46 498 1
E 47 192 8
E 47 419 10
E 47 517 2
E 48 52 1
E 48 557 1
E 48 567 1
E 48 576 2
E 49 53 1
E 49 597 1
E 49 615 1
E 49 625 2
E 50 54 1
E 50 179 1
E 50 420 12
E 50 525 1
E 51 55 1
E 51 559 2
E 51 584 1
E 51 585 1
E 52 57 1
E 52 552 1
E 52 568 2
E 53 58 1
E 53 587 1
E 53 616 2
E 54 59 1
E 54 409 12
E 54 518 1
E 55 60 1
E 55 186 2
E 55 573 1
E 56 389 10
E 56 498 1
E 56 536 8
E 57 481 12
E 57 546 1
E 57 562 2
E 58 567 2
E 58 575 1
E 58 606 2
E 59 187 1
E 59 399 12
E 59 444 8
E 60 192 2
E 60 517 8
E 60 564 1
E 61 62 1
E 61 916 31
E 62 63 1
E 62 915 31
E 63 914 31
E 63 920 13
E 64 65 1
E 64 905 25
E 64 918 7
E 65 66 1
E 65 903 25
E 66 908 22
E 66 913 15
E 67 82 11
E 67 830 1
E 67 831 1
E 67 835 1
E 68 69 1
E 68 832 4
E 68 840 1
E 68 845 3
E 69 70 1
E 69 827 4
E 70 825 4
E 70 828 3
E 70 838 1
E 71 72 1
E 71 698 4
E 71 741 3
E 71 776 17
E 72 73 1
E 72 581 15
E 72 727 1
E 73 571 15
E 73 699 2
E 73 733 3
E 74 452 10
E 74 517 1
E 74 529 1
E 74 564 8
E 75 76 1
E 75 221 37
E 75 228 5
E 75 232 15
E 76 77 1
E 76 220 37
E 76 227 5
E 77 219 37
E 77 225 4
E 77 226 5
E 78 79 4
E 78 812 10
E 78 835 1
E 78 875 11
E 79 821 10
E 79 848 1
E 79 892 11
E 80 81 4
E 80 875 3
E 80 882 1
E 80 893 1
E 81 892 3
E 81 906 1
E 81 907 1
E 82 193 1
E 82 839 7
E 82 878 3
E 83 848 11
E 83 892 1
E 83 906 3
E 84 470 10
E 84 529 1
E 84 543 2
E 84 582 8
E 85 503 10
E 85 549 1
E 85 558 1
E 85 620 8
E 86 650 3
E 86 669 1
E 86 688 1
E 86 689 1
E 87 194 1
E 87 584 1
E 87 585 1
E 87 623 3
E 88 558 11
E 88 650 1
E 88 688 3
E 88 698 4
E 89 197 1
E 89 719 2
E 89 726 1
E 89 756 6
E 90 93 6
E 90 197 1
E 90 732 2
E 90 757 5
E 91 93 9
E 91 783 1
E 91 784 1
E 92 676 12
E 92 726 6
E 92 756 1
E 92 774 10
E 93 100 5
E 93 758 1
E 94 806 1
E 94 807 1
E 94 818 2
E 94 819 2
E 95 97 6
E 95 818 2
E 95 819 2
E 95 861 14
E 96 97 2
E 96 819 6
E 96 829 1
E 96 862 10
E 97 871 10
E 97 886 14
E 98 706 9
E 98 739 3
E 98 757 2
E 98 766 8
E 99 101 6
E 99 110 6
E 99 717 11
E 99 757 2
E 100 101 2
E 100 757 6
E 100 803 9
E 101 777 2
E 101 813 9
E 102 255 7
E 102 270 2
E 102 278 2
E 102 279 2
E 103 104 6
E 103 278 2
E 103 279 2
E 103 304 14
E 104 285 2
E 104 318 10
E 104 334 12
E 105 106 1
E 105 904 3
E 105 914 13
E 105 920 31
E 106 107 1
E 106 902 3
E 106 919 31
E 107 881 7
E 107 900 3
E 107 918 31
E 108 109 1
E 108 773 2
E 108 781 1
E 108 809 6
E 109 110 1
E 109 770 2
E 109 802 6
E 110 766 2
E 110 797 6
E 111 112 1
E 111 535 2
E 111 548 1
E 111 580 6
E 112 113 1
E 112 528 2
E 112 570 6
E 113 523 2
E 113 524 2
E 113 563 6
E 114 917 2
E 115 904 25
E 115 916 13
E 115 917 2
E 116 917 6
E 117 120 6
E 117 780 2
E 117 795 1
E 117 800 2
E 118 769 6
E 118 780 2
E 118 796 1
E 118 800 2
E 119 120 2
E 119 755 6
E 119 780 6
E 121 124 6
E 121 695 1
E 121 718 2
E 121 759 14
E 122 686 2
E 122 696 1
E 122 712 1
E 122 713 1
E 123 198 1
E 123 553 9
E 123 619 1
E 123 686 6
E 124 198 1
E 124 706 6
E 125 126 1
E 125 210 8
E 126 137 2
E 126 211 8
E 127 128 1
E 127 213 8
E 127 290 1
E 128 214 8
E 128 296 2
E 129 133 1
E 129 340 1
E 129 360 1
E 129 372 2
E 130 134 1
E 130 397 1
E 130 417 1
E 130 429 2
E 131 135 1
E 131 199 1
E 131 299 1
E 132 136 1
E 132 203 2
E 132 383 1
E 132 384 1
E 133 138 1
E 133 332 1
E 133 361 2
E 134 139 1
E 134 386 1
E 134 418 2
E 135 140 1
E 135 297 1
E 136 141 1
E 136 208 2
E 136 369 1
E 137 290 1
E 137 308 8
E 138 275 22
E 138 324 1
E 138 349 2
E 139 360 2
E 139 371 1
E 139 406 2
E 140 209 1
E 141 214 2
E 141 296 8
E 141 357 1
E 142 143 1
E 142 856 2
E 142 890 10
E 143 144 1
E 143 851 2
E 144 805 14
E 144 847 2
E 145 146 1
E 145 500 4
E 145 526 1
E 145 666 19
E 146 147 1
E 146 510 1
E 146 521 1
E 147 486 4
E 147 506 1
E 147 515 1
E 148 296 1
E 148 301 1
E 148 357 8
E 149 150 4
E 149 301 1
E 149 381 8
E 150 346 1
E 150 426 8
E 151 152 4
E 151 415 3
E 151 438 1
E 151 459 1
E 152 458 3
E 152 494 1
E 152 495 1
E 153 215 1
E 153 383 1
E 153 384 1
E 153 427 3
E 154 457 1
E 154 458 1
E 154 486 2
E 154 494 3
E 155 157 10
E 155 230 4
E 155 265 25
E 156 218 31
E 156 224 10
E 157 224 1
E 157 229 12
E 158 491 5
E 159 491 6
E 159 520 1
E 159 533 1
E 159 547 4
E 160 491 1
E 160 520 6
E 161 491 1
E 161 533 6
E 162 216 196
E 162 222 237
E 163 367 4
E 163 424 1
E 163 425 1
E 164 165 1
E 164 176 1
E 164 414 4
E 164 435 2
E 165 423 4
E 165 472 1
E 165 473 1
E 166 167 1
E 166 425 1
E 166 475 4
E 167 168 1
E 167 174 1
E 167 483 4
E 168 175 1
E 168 474 2
E 168 490 4
E 169 170 1
E 169 473 1
E 169 474 1
E 169 509 4
E 170 171 1
E 170 177 1
E 170 514 4
E 171 178 1
E 171 519 4
E 172 859 5
E 173 751 1
E 174 175 1
E 174 424 1
E 174 425 1
E 175 176 2
E 175 435 1
E 176 473 1
E 176 474 1
E 177 178 1
E 177 472 1
E 177 473 1
E 178 482 1
E 179 518 1
E 179 530 1
E 179 531 1
E 180 181 1
E 180 184 1
E 180 537 2
E 180 550 1
E 181 544 1
E 181 554 1
E 181 555 1
E 182 183 1
E 182 188 1
E 182 518 1
E 182 530 1
E 183 184 2
E 183 189 1
E 183 537 1
E 184 536 1
E 184 544 1
E 185 186 1
E 185 191 1
E 185 544 1
E 185 554 1
E 186 192 1
E 186 559 1
E 187 188 1
E 187 453 8
E 187 518 1
E 188 189 1
E 189 536 2
E 190 191 1
E 190 498 8
E 190 536 1
E 190 544 1
E 191 192 1
E 193 835 11
E 193 875 1
E 193 882 3
E 194 595 1
E 194 613 1
E 194 632 3
E 195 196 1
E 195 613 2
E 195 622 1
E 195 660 3
E 196 631 1
E 196 650 1
E 196 669 3
E 197 725 2
E 197 758 6
E 198 695 6
E 199 297 1
E 199 302 1
E 199 303 1
E 200 201 2
E 200 205 1
E 200 302 1
E 200 315 1
E 201 202 1
E 201 206 1
E 201 330 1
E 202 322 1
E 202 337 1
E 202 338 1
E 203 208 1
E 203 337 1
E 203 358 1
E 204 205 1
E 204 210 1
E 204 297 1
E 204 302 1
E 205 206 2
E 205 211 1
E 206 308 1
E 206 322 1
E 207 208 1
E 207 213 1
E 207 322 1
E 207 337 1
E 208 214 1
E 209 210 1
E 209 297 1
E 210 211 1
E 211 308 2
E 212 213 1
E 212 290 8
E 212 308 1
E 212 322 1
E 213 214 1
E 215 382 2
E 215 415 1
E 215 438 3
E 216 217 1
E 216 219 10
E 217 218 1
E 217 220 10
E 218 221 10
E 219 220 1
E 220 221 1
E 221 224 31
E 222 223 1
E 223 225 1
E 224 268 37
E 226 227 1
E 227 228 1
E 228 239 15
E 229 234 10
E 229 272 25
E 230 231 2
E 230 235 10
E 231 234 6
E 231 241 10
E 232 233 1
E 232 236 4
E 233 238 4
E 233 268 15
E 234 257 10
E 234 286 25
E 235 237 1
E 235 241 2
E 236 238 1
E 236 239 1
E 237 240 1
E 237 245 2
E 238 242 1
E 238 280 16
E 239 242 1
E 239 243 1
E 240 244 1
E 240 246 2
E 241 245 1
E 241 257 6
E 242 281 15
E 243 250 4
E 244 247 2
E 244 248 2
E 245 246 1
E 245 261 6
E 246 248 1
E 246 264 6
E 247 249 1
E 247 252 2
E 248 252 2
E 248 266 6
E 249 251 1
E 249 256 2
E 250 253 1
E 250 254 1
E 251 255 1
E 251 260 2
E 252 256 1
E 252 271 6
E 253 258 1
E 253 287 16
E 254 258 1
E 254 259 1
E 255 263 2
E 256 260 1
E 256 274 6
E 257 261 1
E 257 306 25
E 258 262 1
E 258 288 16
E 259 262 1
E 260 263 1
E 260 276 6
E 261 264 1
E 261 312 25
E 262 273 4
E 262 289 16
E 263 267 2
E 263 277 6
E 264 266 1
E 264 319 25
E 265 269 2
E 265 270 2
E 266 271 2
E 266 327 25
E 267 279 5
E 267 282 6
E 268 272 1
E 268 281 5
E 269 275 2
E 269 316 22
E 270 275 2
E 271 274 1
E 271 343 25
E 272 280 4
E 272 286 10
E 273 466 36
E 274 276 1
E 274 352 25
E 275 278 2
E 276 277 1
E 276 363 25
E 277 282 2
E 277 375 25
E 278 293 12
E 279 285 6
E 280 283 1
E 280 291 10
E 281 283 1
E 282 285 5
E 282 401 25
E 283 284 1
E 283 292 10
E 284 287 4
E 284 294 10
E 285 305 10
E 286 291 4
E 286 306 10
E 287 288 1
E 287 307 10
E 288 289 1
E 288 314 10
E 289 321 10
E 291 292 1
E 292 294 1
E 292 345 10
E 293 295 1
E 293 334 8
E 294 307 4
E 294 356 10
E 295 298 1
E 295 342 8
E 298 300 1
E 298 304 2
E 299 303 1
E 299 316 3
E 300 310 2
E 300 311 2
E 301 382 9
E 302 309 1
E 303 309 1
E 303 323 3
E 304 311 1
E 304 351 6
E 305 318 2
E 305 374 8
E 306 312 1
E 306 313 1
E 307 314 1
E 309 315 1
E 309 331 3
E 310 317 1
E 310 326 2
E 311 326 2
E 311 362 6
E 312 319 1
E 312 320 1
E 313 320 1
E 313 329 2
E 314 321 1
E 315 330 2
E 315 339 3
E 316 323 1
E 316 324 1
E 317 325 1
E 317 498 18
E 318 399 8
E 318 444 12
E 319 327 1
E 319 328 1
E 320 328 1
E 320 336 2
E 323 331 1
E 323 332 1
E 324 332 1
E 325 333 1
E 325 341 2
E 326 341 2
E 326 389 6
E 327 335 1
E 327 343 2
E 328 335 1
E 328 344 2
E 329 336 1
E 330 338 1
E 330 359 3
E 331 339 1
E 331 340 1
E 332 340 1
E 333 349 2
E 333 350 2
E 334 342 1
E 334 444 10
E 335 353 2
E 335 354 2
E 336 344 1
E 337 347 1
E 338 347 1
E 338 370 3
E 339 348 1
E 339 359 2
E 340 348 1
E 341 350 1
E 341 408 6
E 342 351 1
E 342 453 10
E 343 352 1
E 343 353 1
E 344 354 1
E 345 355 1
E 345 356 1
E 346 368 2
E 346 436 8
E 347 358 1
E 347 385 3
E 348 360 1
E 348 371 2
E 349 361 1
E 349 373 2
E 350 373 2
E 350 419 6
E 351 362 1
E 352 363 1
E 352 364 1
E 353 364 1
E 353 377 2
E 354 365 1
E 354 377 2
E 355 366 1
E 355 367 1
E 356 367 1
E 357 369 1
E 357 381 2
E 358 384 2
E 358 396 3
E 359 370 1
E 359 371 1
E 360 387 2
E 361 372 1
E 361 388 2
E 362 389 2
E 363 375 1
E 363 376 1
E 364 376 1
E 364 392 2
E 365 378 1
E 366 378 1
E 366 379 1
E 367 379 1
E 368 380 1
E 368 456 8
E 369 382 1
E 369 383 1
E 370 385 1
E 370 386 1
E 371 386 1
E 372 387 1
E 372 398 2
E 373 388 1
E 373 443 6
E 374 390 1
E 374 399 2
E 375 391 1
E 375 401 2
E 376 391 1
E 376 402 2
E 377 392 1
E 378 393 1
E 378 403 2
E 379 393 1
E 379 424 4
E 380 394 1
E 380 467 8
E 381 395 1
E 381 426 4
E 382 395 1
E 383 404 2
E 384 416 3
E 385 396 1
E 385 397 1
E 386 397 1
E 387 406 2
E 387 407 2
E 388 398 1
E 388 452 6
E 389 408 2
E 390 400 1
E 390 409 2
E 391 411 2
E 391 412 2
E 392 402 1
E 393 414 2
E 393 435 4
E 394 476 8
E 394 542 19
E 395 404 1
E 395 437 4
E 396 405 1
E 396 416 2
E 397 405 1
E 398 407 1
E 398 463 6
E 399 409 1
E 400 410 1
E 400 420 2
E 401 411 1
E 401 454 5
E 402 412 1
E 403 413 1
E 403 414 1
E 404 415 1
E 404 448 4
E 405 417 1
E 405 428 2
E 406 418 1
E 406 430 2
E 407 430 2
E 407 470 6
E 408 419 1
E 409 420 1
E 410 431 2
E 410 454 4
E 411 432 2
E 411 464 5
E 412 421 1
E 412 432 2
E 413 422 1
E 413 423 1
E 414 423 1
E 415 458 4
E 416 427 1
E 416 428 1
E 417 440 2
E 417 441 2
E 418 429 1
E 418 442 2
E 419 443 2
E 420 431 1
E 421 433 1
E 421 445 2
E 422 433 1
E 422 434 1
E 423 434 1
E 424 435 1
E 426 436 1
E 426 437 1
E 427 438 1
E 427 439 1
E 428 439 1
E 428 440 1
E 429 441 1
E 429 451 2
E 430 442 1
E 430 489 6
E 431 471 4
E 431 525 12
E 432 445 1
E 432 562 19
E 433 446 1
E 433 455 2
E 434 446 1
E 434 472 4
E 436 447 1
E 436 456 2
E 437 447 1
E 437 448 1
E 438 449 1
E 439 449 1
E 439 450 1
E 440 450 1
E 440 461 2
E 441 461 2
E 441 462 2
E 442 451 1
E 442 497 6
E 443 452 1
E 443 517 10
E 444 453 1
E 445 455 1
E 445 569 19
E 446 465 2
E 446 482 4
E 447 457 1
E 447 468 2
E 448 457 1
E 448 458 1
E 449 459 1
E 449 460 1
E 450 460 1
E 450 469 2
E 451 462 1
E 451 503 6
E 452 463 1
E 454 464 1
E 454 471 2
E 455 465 1
E 455 499 5
E 456 467 1
E 456 468 1
E 457 478 2
E 459 487 3
E 459 495 4
E 460 479 2
E 460 507 6
E 461 469 1
E 461 480 2
E 462 480 2
E 462 558 16
E 463 470 1
E 463 529 10
E 464 481 2
E 464 499 4
E 465 504 5
E 466 475 1
E 467 476 1
E 467 477 1
E 468 477 1
E 468 478 1
E 469 479 1
E 469 488 2
E 470 489 2
E 471 481 1
E 471 546 12
E 472 482 1
E 474 505 4
E 475 483 1
E 476 484 1
E 476 601 19
E 477 484 1
E 477 485 1
E 478 485 1
E 478 486 1
E 479 487 1
E 479 496 2
E 480 488 1
E 480 571 16
E 481 508 4
E 483 490 1
E 484 492 1
E 484 610 19
E 485 492 1
E 485 493 1
E 486 493 1
E 487 502 2
E 487 512 4
E 488 496 1
E 488 581 16
E 489 497 1
E 489 543 10
E 490 505 2
E 492 500 1
E 493 500 1
E 493 510 3
E 494 501 1
E 494 510 3
E 495 501 1
E 495 512 3
E 496 502 1
E 496 593 16
E 497 503 1
E 497 549 10
E 499 504 1
E 499 508 2
E 500 629 19
E 501 506 1
E 501 507 1
E 502 524 4
E 503 563 12
E 504 513 2
E 505 509 1
E 506 511 1
E 507 511 1
E 507 516 2
E 508 513 1
E 508 578 12
E 509 514 1
E 509 532 4
E 511 515 1
E 511 523 2
E 512 516 1
E 512 524 2
E 513 591 12
E 514 519 1
E 515 521 1
E 515 522 1
E 516 523 1
E 520 542 4
E 521 526 1
E 521 527 1
E 522 527 1
E 522 528 1
E 523 528 1
E 525 531 1
E 525 541 3
E 526 534 1
E 527 534 1
E 527 535 1
E 528 535 1
E 529 572 8
E 530 537 1
E 530 538 1
E 531 538 1
E 531 545 3
E 533 553 4
E 534 539 1
E 534 687 19
E 535 539 1
E 537 540 1
E 538 540 1
E 538 551 3
E 539 548 2
E 539 579 7
E 540 550 2
E 540 556 3
E 541 545 1
E 541 546 1
E 542 547 1
E 542 601 8
E 543 549 1
E 543 603 8
E 545 551 1
E 545 552 1
E 546 552 1
E 547 553 1
E 547 609 8
E 548 658 13
E 548 726 21
E 549 611 8
E 550 555 1
E 550 566 3
E 551 556 1
E 551 557 1
E 552 557 1
E 554 559 1
E 554 560 1
E 555 560 1
E 555 574 3
E 556 561 1
E 556 566 2
E 557 561 1
E 558 571 2
E 559 565 1
E 560 565 1
E 560 586 3
E 561 567 1
E 561 575 2
E 562 568 1
E 562 569 1
E 563 570 1
E 563 659 10
E 564 572 1
E 564 573 1
E 565 585 2
E 565 596 3
E 566 574 1
E 566 575 1
E 567 588 2
E 568 576 1
E 568 577 1
E 569 577 1
E 569 578 1
E 570 580 1
E 570 668 10
E 571 581 1
E 572 582 1
E 572 583 1
E 573 583 1
E 573 584 1
E 574 586 1
E 574 587 1
E 575 587 1
E 576 588 1
E 576 589 1
E 577 589 1
E 577 590 1
E 578 590 1
E 578 591 1
E 579 592 1
E 579 658 8
E 580 658 8
E 580 677 10
E 581 593 1
E 582 594 1
E 582 603 2
E 583 594 1
E 583 595 1
E 584 595 1
E 585 614 3
E 586 596 1
E 586 597 1
E 587 597 1
E 588 598 1
E 588 606 2
E 589 598 1
E 589 599 1
E 590 599 1
E 590 600 1
E 591 600 1
E 591 628 4
E 592 602 1
E 592 667 8
E 593 659 7
E 593 698 11
E 594 604 1
E 594 612 2
E 595 604 1
E 596 605 1
E 596 614 2
E 597 605 1
E 598 607 1
E 598 617 2
E 599 607 1
E 599 608 1
E 600 608 1
E 600 639 4
E 601 609 1
E 601 610 1
E 602 676 8
E 602 697 10
E 603 611 1
E 603 612 1
E 604 613 1
E 604 622 2
E 605 615 1
E 605 624 2
E 606 616 1
E 606 617 1
E 607 618 1
E 607 627 2
E 608 618 1
E 608 648 4
E 609 619 1
E 610 619 1
E 610 629 2
E 611 620 1
E 611 621 1
E 612 621 1
E 612 622 1
E 613 642 3
E 614 623 1
E 614 624 1
E 615 634 2
E 615 635 2
E 616 625 1
E 616 626 1
E 617 626 1
E 617 627 1
E 618 638 2
E 618 656 4
E 619 675 6
E 620 630 1
E 621 630 1
E 621 631 1
E 622 631 1
E 623 632 1
E 623 633 1
E 624 633 1
E 624 634 1
E 625 635 1
E 625 636 1
E 626 636 1
E 626 637 1
E 627 637 1
E 627 638 1
E 628 639 1
E 628 640 1
E 629 666 4
E 630 641 1
E 631 641 1
E 632 642 1
E 632 643 1
E 633 643 1
E 633 644 1
E 634 644 1
E 634 653 2
E 635 645 1
E 635 653 2
E 636 645 1
E 636 646 1
E 637 646 1
E 637 647 1
E 638 647 1
E 638 674 4
E 639 648 1
E 639 649 1
E 640 649 1
E 641 650 1
E 642 651 1
E 642 660 2
E 643 651 1
E 643 652 1
E 644 652 1
E 644 662 2
E 645 654 1
E 645 663 2
E 646 654 1
E 646 655 1
E 647 655 1
E 647 684 4
E 648 656 1
E 648 657 1
E 649 657 1
E 651 661 1
E 651 670 2
E 652 661 1
E 652 671 2
E 653 662 1
E 653 663 1
E 654 664 1
E 654 673 2
E 655 664 1
E 655 693 4
E 656 665 1
E 656 674 2
E 657 665 1
E 658 667 1
E 658 736 10
E 659 668 1
E 659 764 21
E 660 669 1
E 660 670 1
E 661 679 2
E 661 680 2
E 662 671 1
E 662 672 1
E 663 672 1
E 663 673 1
E 664 683 2
E 664 704 4
E 665 685 2
E 666 675 1
E 666 687 2
E 667 676 1
E 667 740 10
E 668 677 1
E 668 768 21
E 669 678 1
E 670 678 1
E 670 679 1
E 671 680 1
E 671 681 1
E 672 681 1
E 672 682 1
E 673 682 1
E 673 683 1
E 674 684 1
E 674 685 1
E 675 686 1
E 675 696 2
E 676 744 10
E 677 736 8
E 677 772 21
E 678 689 1
E 678 690 1
E 679 690 1
E 679 701 2
E 680 701 2
E 680 702 2
E 681 691 1
E 681 709 3
E 682 691 1
E 682 692 1
E 683 692 1
E 684 693 1
E 684 694 1
E 685 694 1
E 686 695 1
E 687 696 1
E 687 697 1
E 688 699 1
E 689 699 1
E 689 700 1
E 690 700 1
E 691 702 1
E 691 703 1
E 692 703 1
E 692 724 4
E 693 704 1
E 693 705 1
E 694 705 1
E 695 712 2
E 696 707 1
E 697 707 1
E 698 763 17
E 699 708 1
E 700 708 1
E 700 714 2
E 701 709 1
E 702 710 1
E 702 716 2
E 703 710 1
E 703 731 4
E 704 711 1
E 704 724 3
E 705 711 1
E 706 717 2
E 707 713 1
E 708 720 2
E 708 727 3
E 709 715 1
E 709 716 1
E 710 723 2
E 712 718 1
E 712 719 1
E 713 719 1
E 713 726 2
E 714 720 1
E 714 721 1
E 715 721 1
E 715 722 1
E 716 722 1
E 716 723 1
E 717 748 6
E 718 725 1
E 718 762 14
E 719 725 1
E 720 728 1
E 720 733 2
E 721 728 1
E 721 729 1
E 722 729 1
E 722 730 1
E 723 730 1
E 723 743 4
E 724 731 1
E 725 732 1
E 727 737 2
E 727 779 18
E 729 734 1
E 730 734 1
E 730 747 4
E 731 743 3
E 732 735 1
E 733 737 1
E 733 742 2
E 734 738 1
E 734 751 4
E 735 739 1
E 736 740 1
E 736 763 11
E 737 741 1
E 737 745 2
E 738 746 2
E 738 754 4
E 740 744 1
E 740 767 11
E 741 749 2
E 741 791 17
E 742 745 1
E 742 746 1
E 743 747 1
E 744 771 11
E 744 774 12
E 745 749 1
E 745 750 1
E 746 750 1
E 747 751 1
E 748 752 1
E 748 759 6
E 749 753 1
E 750 753 1
E 751 754 1
E 752 755 1
E 752 760 6
E 753 764 7
E 755 761 6
E 756 758 1
E 759 760 1
E 759 762 2
E 760 761 1
E 760 765 2
E 761 769 2
E 761 780 6
E 762 765 1
E 762 766 1
E 763 767 1
E 763 776 4
E 764 768 1
E 765 769 1
E 765 770 1
E 766 770 1
E 767 771 1
E 767 778 4
E 768 772 1
E 769 773 1
E 770 773 1
E 771 785 4
E 772 775 1
E 773 796 6
E 774 784 3
E 774 828 15
E 775 804 7
E 776 778 1
E 776 779 1
E 777 782 1
E 777 820 10
E 778 785 1
E 778 786 1
E 779 786 1
E 779 791 2
E 781 801 4
E 781 812 6
E 782 787 1
E 782 822 10
E 783 788 1
E 783 789 1
E 784 789 1
E 784 825 11
E 785 790 1
E 785 828 12
E 786 790 1
E 786 794 2
E 787 797 2
E 787 824 10
E 788 792 1
E 788 793 1
E 789 793 1
E 789 827 11
E 790 799 2
E 790 838 15
E 791 794 1
E 792 798 1
E 792 834 12
E 793 810 3
E 793 832 11
E 794 799 1
E 795 805 2
E 795 806 2
E 796 807 2
E 796 808 2
E 797 802 1
E 797 826 9
E 798 803 1
E 798 836 12
E 799 841 15
E 800 806 1
E 800 807 1
E 801 808 1
E 801 821 6
E 802 809 1
E 802 830 9
E 803 810 1
E 803 813 2
E 804 811 1
E 805 815 2
E 806 815 2
E 807 816 2
E 808 816 2
E 808 823 6
E 809 812 1
E 809 833 9
E 810 817 2
E 810 837 11
E 811 814 1
E 812 821 4
E 813 817 1
E 813 826 6
E 814 842 12
E 815 818 1
E 815 847 14
E 816 819 1
E 816 829 6
E 817 820 2
E 817 839 11
E 818 852 14
E 820 822 1
E 820 863 15
E 821 823 1
E 822 824 1
E 822 867 15
E 823 829 2
E 823 848 10
E 824 831 2
E 824 872 15
E 825 827 1
E 826 830 1
E 826 831 1
E 827 832 1
E 830 833 1
E 832 834 1
E 833 835 1
E 834 836 1
E 834 840 4
E 836 837 1
E 836 843 4
E 837 839 2
E 837 844 4
E 838 841 2
E 839 853 4
E 840 843 1
E 841 846 2
E 842 850 3
E 843 844 1
E 843 864 5
E 844 853 2
E 844 858 3
E 845 854 2
E 845 858 3
E 846 849 1
E 846 850 1
E 847 851 1
E 847 852 1
E 848 862 3
E 849 854 1
E 849 855 1
E 850 855 1
E 851 856 1
E 851 857 1
E 852 857 1
E 852 861 2
E 853 863 2
E 853 868 3
E 854 859 1
E 855 859 1
E 856 860 1
E 856 900 10
E 857 860 1
E 857 866 2
E 858 868 2
E 859 865 1
E 860 870 2
E 861 866 1
E 861 886 6
E 862 871 2
E 863 867 1
E 863 876 3
E 864 869 1
E 865 869 1
E 866 870 1
E 866 891 6
E 867 872 1
E 867 879 3
E 868 876 2
E 869 873 1
E 870 874 1
E 870 897 6
E 871 913 17
E 872 883 3
E 872 884 3
E 873 880 2
E 873 895 5
E 874 877 1
E 874 901 6
E 875 892 4
E 876 879 1
E 876 885 2
E 877 881 1
E 877 903 6
E 878 882 1
E 878 883 1
E 879 884 1
E 879 888 2
E 880 889 2
E 881 905 6
E 882 887 1
E 883 887 1
E 884 894 2
E 885 888 1
E 885 889 1
E 886 891 1
E 887 893 1
E 888 894 1
E 890 896 1
E 890 900 2
E 891 897 1
E 893 907 4
E 894 898 1
E 895 910 6
E 896 899 1
E 896 902 2
E 897 901 1
E 899 904 2
E 899 917 25
E 900 902 1
E 901 903 1
E 901 913 10
E 902 904 1
E 903 905 1
E 906 908 1
E 907 908 1
E 910 911 2
E 911 912 2
E 914 915 1
E 915 916 1
E 918 919 1
E 919 920 1
E 1 921 100000
E 2 921 100000
E 3 921 100000
E 4 921 100000
E 5 921 100000
E 6 921 100000
E 7 922 100000
E 8 922 100000
E 9 922 100000
E 10 922 100000
E 11 922 100000
E 12 922 100000
E 13 922 100000
E 14 922 100000
E 15 923 100000
E 16 923 100000
E 17 923 100000
E 18 923 100000
E 19 923 100000
E 20 924 100000
E 21 924 100000
E 22 924 100000
E 23 924 100000
E 24 925 100000
E 25 925 100000
E 26 926 100000
E 27 926 100000
E 28 926 100000
E 29 926 100000
E 30 927 100000
E 31 927 100000
E 32 927 100000
E 33 927 100000
E 34 928 100000
E 35 928 100000
E 36 928 100000
E 37 928 100000
E 38 929 100000
E 39 930 100000
E 40 931 100000
E 41 932 100000
E 42 933 100000
E 43 934 100000
E 44 935 100000
E 45 935 100000
E 46 935 100000
E 47 935 100000
E 48 935 100000
E 49 935 100000
E 50 935 100000
E 51 935 100000
E 52 936 100000
E 53 936 100000
E 54 936 100000
E 55 936 100000
E 56 937 100000
E 57 937 100000
E 58 937 100000
E 59 937 100000
E 60 937 100000
E 61 938 100000
E 62 939 100000
E 63 940 100000
E 64 941 100000
E 65 942 100000
E 66 943 100000
E 67 944 100000
E 68 945 100000
E 69 946 100000
E 70 947 100000
E 71 948 100000
E 72 949 100000
E 73 950 100000
E 74 951 100000
E 75 952 100000
E 76 953 100000
E 77 954 100000
E 78 955 100000
E 79 955 100000
E 80 955 100000
E 81 955 100000
E 82 955 100000
E 83 955 100000
E 84 956 100000
E 85 956 100000
E 86 956 100000
E 87 956 100000
E 88 956 100000
E 89 957 100000
E 90 957 100000
E 91 957 100000
E 92 957 100000
E 93 957 100000
E 94 958 100000
E 95 958 100000
E 96 958 100000
E 97 958 100000
E 98 959 100000
E 99 959 100000
E 100 959 100000
E 101 959 100000
E 102 960 100000
E 103 960 100000
E 104 960 100000
E 105 961 100000
E 106 962 100000
E 107 963 100000
E 108 964 100000
E 109 965 100000
E 110 966 100000
E 111 967 100000
E 112 968 100000
E 113 969 100000
E 114 970 100000
E 115 970 100000
E 116 970 100000
E 117 971 100000
E 118 971 100000
E 119 971 100000
E 120 971 100000
E 121 972 100000
E 122 972 100000
E 123 972 100000
E 124 972 100000
E 125 973 100000
E 126 973 100000
E 127 973 100000
E 128 973 100000
E 129 973 100000
E 130 973 100000
E 131 973 100000
E 132 973 100000
E 133 974 100000
E 134 974 100000
E 135 974 100000
E 136 974 100000
E 137 975 100000
E 138 975 100000
E 139 975 100000
E 140 975 100000
E 141 975 100000
E 142 976 100000
E 143 977 100000
E 144 978 100000
E 145 979 100000
E 146 980 100000
E 147 981 100000
E 148 982 100000
E 149 983 100000
E 150 983 100000
E 151 983 100000
E 152 983 100000
E 153 983 100000
E 154 983 100000
E 155 984 100000
E 156 985 100000
E 157 985 100000
E 158 986 100000
E 159 986 100000
E 160 986 100000
E 161 986 100000
E 162 987 100000
E 163 922 100000
E 164 922 100000
E 165 922 100000
E 166 923 100000
E 167 923 100000
E 168 923 100000
E 169 923 100000
E 170 923 100000
E 171 923 100000
E 172 926 100000
E 173 927 100000
E 174 928 100000
E 175 928 100000
E 176 928 100000
E 177 928 100000
E 178 928 100000
E 179 935 100000
E 180 935 100000
E 181 935 100000
E 182 936 100000
E 183 936 100000
E 184 936 100000
E 185 936 100000
E 186 936 100000
E 187 937 100000
E 188 937 100000
E 189 937 100000
E 190 937 100000
E 191 937 100000
E 192 937 100000
E 193 955 100000
E 194 956 100000
E 195 956 100000
E 196 956 100000
E 197 957 100000
E 198 972 100000
E 199 973 100000
E 200 973 100000
E 201 973 100000
E 202 973 100000
E 203 973 100000
E 204 974 100000
E 205 974 100000
E 206 974 100000
E 207 974 100000
E 208 974 100000
E 209 975 100000
E 210 975 100000
E 211 975 100000
E 212 975 100000
E 213 975 100000
E 214 975 100000
E 215 983 100000
END

SECTION Terminals
Terminals 67
T 921
T 922
T 923
T 924
T 925
T 926
T 927
T 928
T 929
T 930
T 931
T 932
T 933
T 934
T 935
T 936
T 937
T 938
T 939
T 940
T 941
T 942
T 943
T 944
T 945
T 946
T 947
T 948
T 949
T 950
T 951
T 952
T 953
T 954
T 955
T 956
T 957
T 958
T 959
T 960
T 961
T 962
T 963
T 964
T 965
T 966
T 967
T 968
T 969
T 970
T 971
T 972
T 973
T 974
T 975
T 976
T 977
T 978
T 979
T 980
T 981
T 982
T 983
T 984
T 985
T 986
T 987
END

EOF
